c Lingeling SAT Solver
c 
c Version ala b02aa1a04343558c4252b5f4a723be021964f652
c 
c Copyright (C) 2010-2012 Armin Biere JKU Linz Austria.
c All rights reserved.
c 
c released Sat Oct 13 14:05:26 CEST 2012
c compiled Sat Feb 16 02:48:12 EST 2013
c 
c gcc (Debian 4.4.5-8) 4.4.5
c -Wall -O3 -DNLGLOG -DNDEBUG -DNCHKSOL -DNLGLPICOSAT 
c Linux greencar2 2.6.32-5-amd64 x86_64
c 
c reading input file p67.cnf
c no embedded options
c found 'p cnf 219397 679840' header
c read 219397 variables, 679840 clauses, 1414369 literals in 0.0 seconds
c
c feature vars 219397
c feature lits.total 1414369
c feature lits.pos 753640
c feature lits.neg 660729
c feature clauses.total 679840
c feature clauses.unit 82025
c feature clauses.bin 478901
c feature clauses.trn 117514
c feature clauses.lrg 1400
c feature cog.val.min 1
c feature cog.val.avg 97752
c feature cog.val.max 211055
c feature cog.var.min 1
c feature cog.var.avg 109699
c feature cog.var.max 219396
c
c
c --abstime=0
c --acts=2
c --actavgmax=120
c --actstdmin=20
c --actstdmax=80
c --agile=23
c --bias=2
c --block=1
c --blkrtc=0
c --blkclslim=2000
c --blkocclim=2000
c --blkmaxeff=2147483647
c --blkmineff=10000000
c --blkreleff=20
c --card=0
c --cce=3
c --ccemaxeff=100000000
c --ccemineff=5000000
c --ccereleff=3
c --check=0
c --cgrclsr=1
c --cgrmaxority=20
c --cgrmaxeff=8000000
c --cgrmineff=200000
c --cgreleff=1
c --cgrexteq=1
c --cgrextand=1
c --cgrextunits=1
c --cgrextite=1
c --cgrextxor=1
c --cliff=1
c --cliffreleff=8
c --cliffmineff=10000000
c --cliffmaxeff=100000000
c --compact=0
c --decompose=1
c --defragint=10000000
c --defragfree=50
c --elim=1
c --elmrtc=0
c --elmblk=1
c --elmclslim=1000
c --elmocclim=1000
c --elmaxeff=100000000
c --elmineff=5000000
c --elmreleff=10
c --sleeponabort=0
c --exitonabort=0
c --flipping=1
c --flipint=2
c --flipdur=50
c --fliptop=1
c --force=0
c --gauss=1
c --gaussextrall=1
c --gaussmaxor=20
c --gaussexptrn=1
c --gaussmaxeff=50000000
c --gaussmineff=2000000
c --gaussreleff=2
c --gluescale=2
c --gluekeep=0
c --inprocessing=1
c --cintinc=10000
c --irrlim=20
c --lift=1
c --lftmaxeff=20000000
c --lftmineff=500000
c --lftreleff=6
c --lhbr=1
c --lkhd=1
c --clim=-1
c --mocint=1000
c --move=2
c --log=-1
c --otfs=1
c --phase=0
c --phaseneginit=0
c --plain=0
c --probe=1
c --prbasicmaxeff=100000000
c --prbasicmineff=1000000
c --prbasicreleff=10
c --prbasic=1
c --prbasicroundlim=9
c --queuemergelim=10000
c --queuefactor=833
c --queueinc=20
c --rmincpen=4
c --seed=0
c --smallirr=90
c --smallve=1
c --smallvevars=12
c --randec=1
c --randecint=1000
c --redfixed=0
c --redlbound=0
c --redlexpfac=10
c --redldoutfac=0
c --redloutinc=10000
c --redlinit=1000
c --redlinc=1000
c --redinoutinc=100
c --redlmininc=10
c --redlmaxinc=200
c --redlminrel=10
c --redlmaxrel=300
c --redlminabs=500
c --redlmaxabs=1000000
c --reduce=1
c --restart=2
c --restartint=5
c --rstinoutinc=110
c --simplify=1
c --simpdelay=100
c --simpen=4
c --sizepen=1000000
c --sizemaxpen=3
c --sortlits=0
c --syncint=111111
c --termint=122222
c --ternres=1
c --ternresrtc=0
c --trnrmineff=4000000
c --trnrmaxeff=40000000
c --trnreleff=10
c --transred=1
c --trdmineff=100000
c --trdmaxeff=2000000
c --trdreleff=10
c --unhide=1
c --unhdextstamp=1
c --unhdhbr=0
c --unhdmaxeff=20000000
c --unhdmineff=1000000
c --unhdreleff=4
c --unhdlnpr=3
c --unhdroundlim=5
c --verbose=1
c --witness=1
c [limits] no conflict limit
c [limits] simplification delayed by 100 to 100 conflicts
c 
c  seconds         irredundant          redundant clauses agility   height
c          variables clauses conflicts large binary ternary    glue         MB
c 
c *    0.0  120714   506357         0       0      0     0  63  0.0   0.0   41
c [cut-width] 169001, max 262344, min4 111756 at 75%, min10 32549 at 89%
c [decision-order] bias 1, old 1
c [queue-schedule-all-variables]
c s    0.0  120714   506357         0       0      0     0  63  0.0   0.0   41
c [simplification-1] limit hit at 100 conflicts
c [simplification-1] simplification penalty of 4
c [ternres-1] limit 4000000 with penalty 0 = 0 + 0
c [ternres-1] all 120714 free variables schedulable
c [ternres-1] 0 ternary resolvents (0 bin, 0 trn)
c [ternres-1] 11883 variables remain 10% (108831 retained)
c [gauss-1] limit 2000000 penalty 0 = 0 + 0
c [gauss-1] extracted 165860 xors of average arity 2.0
c [gauss-1] connected 331721 occurrences of 77987 variables (average 4.3)
c [gauss-1] limit 2000000 penalty 0 = 0 + 0
c [gauss-1] exported 0 unary, 0 binary and 0 ternary equations
c G    1.2  120714   485006       100     100      0     0  80  4.9 190.8   27
c d    1.4   55599   252262       100     100      0     0  80  4.9 190.8   21
c [basicprobe-1] limit 1000000 penalty 0 = 0 + 0
c [basicprobe-1-0] 4039 probes remain 7% after last round
c [basicprobe-1-0] 1 units = 1 failed (100%) + 0 lifted (0%)
c [basicprobe-1-0] removed 1 variables, found 8130 hbrs
c p    1.5   55598   252262       100     100   8130     0  80  4.9 190.8   25
c [cgrclsr-1] limit 200000 penalty 0 = 0 + 0
c [cgrclsr-1] all 55598 free variables schedulable
c [cgrclsr-1] fully completed congruence closure
c [lift-1] limit 500000 with penalty 0 = 0 + 0
c [lift-1] using 55598 probes 100%
c [lift-1] 55564 variables remain 100% (34 retained)
c [cliff-1] limit of 10000000 steps penalty 0 = 0 + 0
c [cliff-1] failed 1, lifted 6
c K    2.5   55589   252257       100     100  17117     0  80  4.9 190.8   25
c [unhide-1] limit 1000000 with penalty 0 = 0 + 0
c [unhide-1-1] 0 units, 1 failed, 20496 tauts, 0 hbrs, 74 literals
c u    2.7   55588   231718       100     100  17117     0  80  4.9 190.8   25
c [transred-1] limit 100000 with penalty 0 = 0 + 0
c t    2.7   55588   231718       100     100  17112     0  80  4.9 190.8   25
c [block-1] scheduling all variables this time
c [block-1] scheduled 55588 variables 100%
c [block-1] limit of 10000000 steps penalty 0 = 0 + 0
c [block-1] fully completed blocked clause elimination
c [block-1] transition to [ all 0 rem 0 ] state
c [block-1] eliminated 4400 blocked clauses
c k    3.0   55588   227313       100     100  17112  4400  80  4.9 190.8   21
c [cce-1] scheduling all variables this time
c [cce-1] limit of 10000000 steps penalty 0 = 0 + 0
c [cce-1] incomplete covered clause elimination 49908 not tried 90%
c [cce-1] transition to [ all 1 rem 1 ] state
c [cce-1] eliminated 123 covered clauses
c E    3.7   55586   227190       100     100  22921  4400  80  4.9 190.8   21
c [elim-1] scheduling all variables this time
c [elim-1] scheduled 55586 variables 100%
c [elim-1] limit of 5000000 steps penalty 0 = 0 + 0
c [elim-1] incomplete variable elimination 40961 not tried 74%
c [elim-1] transition to [ all 1 rem 1 ] state
c [elim-1] eliminated 6230 = 11% variables out of 55586
c e    5.3   49356   223360       100      62   7992   555  80  4.9 190.8   20
c [phase-1] phase bias: 1257 positive 15%, 7339 negative 85%
c [simplification-1] removed 71358 variables 59%
c [simplification-1] limit increments divided by 30
c [simplification-1] arithmetic increase of conflict limit interval by 333
c [simplification-1] new irredundant limit 2218022
c [simplification-1] new conflict limit 433
c [simplification-1] simplification penalty reduced to 3
c R    5.5   49356   223360       419     352   8001   573  11  5.5 262.0   25
c [simplification-2] limit hit at 433 conflicts
c [simplification-2] simplification penalty of 3
c [ternres-2] limit 2000000 with penalty 1 = 1 + 0
c [ternres-2] 4839 schedulable variables 10%
c [ternres-2] 1 ternary resolvents (0 bin, 1 trn)
c [ternres-2] fully completed ternary resolution
c T    5.5   49356   223360       433     361   8003   577   8  5.5 268.0   25
c [gauss-2] limit 1000000 penalty 1 = 1 + 0
c [gauss-2] extracted 468 xors of average arity 3.0
c [gauss-2] connected 1404 occurrences of 933 variables (average 1.5)
c [gauss-2] limit 1000000 penalty 1 = 1 + 0
c [gauss-2] fully completed
c [gauss-2] exported 0 unary, 0 binary and 0 ternary equations
c G    5.7   49356   223360       433     361   8003   577   8  5.5 268.0   20
c [basicprobe-2] limit 1000000 penalty 0 = 0 + 0
c [basicprobe-2-0] 3726 probes remain 8% after last round
c [basicprobe-2-0] removed 0 variables, found 730 hbrs
c p    5.9   49356   223360       433     361   8733   577   8  5.5 268.0   25
c [cgrclsr-2] limit 100000 penalty 1 = 1 + 0
c [cgrclsr-2] all 49356 free variables schedulable
c [cgrclsr-2] fully completed congruence closure
c [lift-2] limit 250000 with penalty 1 = 1 + 0
c [lift-2] using 49325 probes 100%
c [lift-2] 49305 variables remain 100% (51 retained)
c [cliff-2] limit of 10000000 steps penalty 0 = 0 + 0
c [cliff-2] failed 0, lifted 0
c [unhide-2] limit 1000000 with penalty 0 = 0 + 0
c [unhide-2-2] 0 units, 0 failed, 1962 tauts, 0 hbrs, 198 literals
c u    6.9   49356   223353       433     360   7958   577   8  5.5 268.0   25
c [transred-3] limit 100000 with penalty 0 = 0 + 0
c t    7.0   49356   223349       433     360   7951   577   8  5.5 268.0   25
c [block-2] scheduling all variables this time
c [block-2] scheduled 49356 variables 100%
c [block-2] limit of 10000000 steps penalty 0 = 0 + 0
c [block-2] fully completed blocked clause elimination
c [block-2] transition to [ all 0 rem 0 ] state
c [block-2] eliminated 0 blocked clauses
c [cce-2] 46509 variables 94% will be scheduled this time
c [cce-2] limit of 10000000 steps penalty 0 = 0 + 0
c [cce-2] 45959 variables 93% remain to be tried next time
c [cce-2] transition to [ all 0 rem 1 ] state
c [cce-2] eliminated 400 covered clauses
c E    7.7   49356   222949       433     360   8766   577   8  5.5 268.0   20
c [elim-2] 40894 variables 83% will be scheduled this time
c [elim-2] scheduled 40894 variables 83%
c [elim-2] limit of 5000000 steps penalty 0 = 0 + 0
c [elim-2] 30777 variables 62% remain to be tried next time
c [elim-2] transition to [ all 0 rem 1 ] state
c [elim-2] eliminated 1089 = 2% variables out of 49356
c e    9.3   48267   222490       433     355   6455   573   8  5.5 268.0   21
c [phase-2] phase bias: 4 positive 100%, 0 negative 0%
c [simplification-2] removed 1089 variables 2%
c [simplification-2] limit increments divided by 2
c [simplification-2] arithmetic increase of conflict limit interval by 5000
c [simplification-2] new irredundant limit 2218022
c [simplification-2] new conflict limit 5766
c [simplification-2] simplification penalty reduced to 2
c R    9.8   48267   222490       989     847   6464   621   2  5.6 214.3   25
c -   10.0   48267   222490      1174     501   6472   643   3  5.5 207.2   25
c 1   10.6   48267   222490      1909    1118   6498   724   4  5.7 219.6   25
c 
c  seconds         irredundant          redundant clauses agility   height
c          variables clauses conflicts large binary ternary    glue         MB
c 
c blkd: 2 bces, 4400 removed, 1330665 resolutions, 3696282 steps
c blkd: 4400 blocking literals 1%, 0 pure
c cces: 2 cces, 514 eliminated, 514 ate 100%, 0 abce 0%
c cces: 12460 probed, 1 lifted, 2 failed
c clff: 2 cliffs, 6 lifted, 1 failed
c clff: 10370 decisions, 20002399 steps
c clls: 1 sat, 0 simp, 0 freeze, 0 melt
c clls: 2094209 add, 0 assume,, 0 deref, 0 failed
c clls: 0 cassume, 0 mosat
c coll: 14 gcs, 0 rescored clauses
c cgrs: 2 count, 300005 esteps, 70484 csteps
c cgrs: 0 eqs, 0 units
c cgrs: 0 matched (0 ands 0%, 0 xors 0%, 0 ites 0%)
c cgrs: 0 simplified (0 ands 0%, 0 xors 0%, 0 ites 0%)
c cgrs: 2009 extracted (1697 ands 84%, 312 xors 16%, 0 ites 0%)
c dcps: 2 decompositions, 65115 equivalent 30%
c decs: 38760 decision, 35 random 0.090%
c decs: 6988 flipped 18.029% (in 13 phases)
c elms: 2 elims, 7319 eliminated 3%
c elms: 7319 small 100%, 0 large 0%
c elms: 24905 tried small, 7319 succeeded 29%, 17586 failed 71%
c elms: 0 subsumed, 0 strengthened, 0 blocked
c elms: 316650 copies, 220106 resolutions, 648299 ipos
c elms: 0 subchks, 0 strchks
c frcs: 0 computed, 29.4 - 70.6 average min-cut range
c gaus: 2 extractions, 166328 extracted, 2.0 size, 3 max
c gaus: exported 0 units, 0 binary and 0 ternary equations
c gaus: 0 gc, 6000092 steps, 3000046 extr 50%, 2246938 elim 37%
c glue: 5.7 avg, 2.4 scaled avg
c glue: 0 maxredglue=15 (0%)
c lift: 2 phases, 323 probed (108 level1 33%, 215 level2 67%)
c lift: 0 units, 0 equivalences, 1 implications
c hbrs: 25150 hbrs = 25150 trn 100% + 0 lrg 0%, 3 sub 0%
c lrnd: 1888 clauses, 1195 uips 63%, 18.0 length, 5.7 glue
c ints: 126 luby (11736 steps), 0 inout (0 steps)
c mins: 33953 learned lits, 3% minimized
c move: moved 4914, 514 binary 10%, 4400 ternary 90%
c otfs: str 85 dyn (70 red, 15 irr) 21 drv 25%, 64 rst 75%
c otfs: sub 0 dyn (0 red, 0 irr)
c phas: 2 computed, 8712 set, 1261 pos (14%), 7451 neg (86%)
c prbs: 2 basic, 2719 probed, 1 failed, 0 lifted
c prps: 11626510 props, 118 props/dec
c prps: 39% srch, 61% simp, 0% lkhd
c psns: 134715 searches, 18451 hits, 14% hit rate
c queu: 5489 new, 1639 del, 120 maximum priority
c queu: 3822 merged, 900 collected, 2 gcs
c queu: 1973 deprioritized, 20.2 lines on average
c reds: 1 count, 0 reset, 1 acts 100%, 0 exp 0%
c reds: 1 arithmetic 100%, 1 double 100%
c rmbd: 7 removed, 0 red 0%
c rsts: 91 restarts 73%, 34 skipped 27%
c rsts: 19 kept 20.9% average 49.8%
c simp: 2 count (0 ilim 0%, 0 plim 0%, 2 clim 100%)
c trnr: 2 count, 0 bin, 1 trn, 4352912 steps
c tops: 98696 fixed 45%, 0 iterations
c trds: 4 transitive reductions, 16 removed, 0 failed
c trds: 254 nodes, 378 edges, 201559 steps
c unhd: 2 count, 2 rounds, 2343227 steps
c unhd: 0 non-trivial sccs of average size 0.0
c unhd: 0 units, 0 bin, 0 trn, 0 lrg
c unhd: 1 failed, 1 stamp, 0 lits, 0 bin, 0 trn, 0 lrg
c unhd: 22458 tauts, 0 bin 0%, 0 trn 0%, 0 lrg 0%
c unhd: 22458 tauts, 22458 stamp 100%, 1962 red 9%
c unhd: 0 hbrs, 0 trn 0%, 0 lrg 0%, 0 red 0%
c unhd: 272 strd, 0 bin 0%, 0 trn 0%, 272 lrg 100%, 272 red 100%
c vars: 48267 remaining 22% and 171130 removed 78% out of 219397
c vars: 98696 fixed 45%, 7319 eliminated 3%, 65115 equivalent 30%
c vsts: 54416745 visits, 41% srch, 59% simp, 0% lkhd
c vsts: 4.9 search visits per propagation 11803.5 per conflict
c wchs: 7830146 pushed, 3560770 enlarged, 22 defrags
c 
c scaledglue  added       reduced       forcing      resolved     conflicts
c 
c all      1669 100       500 100      8635 100      2573 100       161 100
c 
c  0          0   0         0   0         0   0         0   0         0   0 
c  1         15   1         1   0        89   1        19   1         0   0 
c  2        643  39       150  30      4246  49       887  34        41  25 
c  3        773  46<      278  56<     3766  44<     1328  52<      104  65<
c  4        198  12        65  13       479   6       285  11        14   9 
c  5         33   2         5   1        47   1        47   2         2   1 
c  6          6   0         1   0         7   0         6   0         0   0 
c  7          1   0         0   0         1   0         1   0         0   0 
c  8          0   0         0   0         0   0         0   0         0   0 
c  9          0   0         0   0         0   0         0   0         0   0 
c 10          0   0         0   0         0   0         0   0         0   0 
c 11          0   0         0   0         0   0         0   0         0   0 
c 12          0   0         0   0         0   0         0   0         0   0 
c 13          0   0         0   0         0   0         0   0         0   0 
c 14          0   0         0   0         0   0         0   0         0   0 
c 15          0   0         0   0         0   0         0   0         0   0 
c 
c avg             2.8           2.9           2.6           2.8           2.9
c std             0.8           0.7           0.7           0.7           0.6
c 
c 38760 decisions, 1909 conflicts, 180.3 conflicts/sec
c 11626510 propagations, 1.1 megaprops/sec
c 10.6 seconds, 47.9 MB
c 
c    0.188   2% analysis
c    0.492   5% block
c    0.016   0% bump
c    0.000   0% card
c    1.280  12% cce
c    1.148  11% cliff
c    0.024   0% cutwidth
c    0.064   1% decide
c    0.000   0% force
c    0.984   9% gc
c    0.380   4% cgrclsr
c    0.376   4% decomp
c    0.260   2% defrag
c    3.124  30% elim
c    1.160  11% gauss
c    0.304   3% lift
c    0.012   0% mincls
c    0.072   1% phase
c    0.204   2% probe
c    0.004   0% reduce
c    0.088   1% restart
c    0.136   1% ternres
c    0.020   0% transred
c    0.392   4% unhide
c ==================================
c    0.032   0% preprocessing     0%
c    9.229  87% inprocessing    100%
c ==================================
c    9.261  87% simplifying
c    0.000   0% lookahead
c    1.312  12% search
c ==================================
c   10.589 100% all
c
s SATISFIABLE
